x04m01e4t1tp5
3058
3058
3144
3155
3155
3155
3217
3217
3217
3217
3217
3319
3319
3319
3319
3474
3474
3474
3474
3474
3474
3644
3801
3801
3801
3801
3801
3801
3801
3801
3801
3801
3801
3801
3801
3801
3801
3801
3801
3801
3801
3801
3820
3820
3820
3820
3820
3820
3820
3820
3820
3820
3820
3820
3820
3820
3820
3820
3820
3820
3820
3820
3820
3820
3820
3820
3820
3820
3820
3820
3820
3820
3820
3820
3820
3820
3820
3820
3820
3820
3820
3820
3820
3820
3820
3820
3822
3822
3822
3822
3822
3822
3822
3822
3822
3822
3822
3822
3876
3876
3876
3876
3876
3876
3876
3876
3876
3876
3876
3876
3876
3876
3876
3876
3876
3876
3876
3876
3876
3876
3876
3876
3876
3876
3876
3876
3876
3876
3876
3876
3876
3876
3876
3876
3876
3876
3876
3876
3876
3876
3876
3876
3876
3876
3876
3876
3876
3876
3876
3876
3876
3876
3876
3876
3876
3876
3876
3876
3876
3876
3876
3876
3876
3876
3876
3876
3876
3876
3876
3876
3876
3876
3876
3876
3876
3876
3876
3876
3876
3876
3876
3876
3876
3904
3904
3904
3904
3904
3904
3904
3904
3904
3904
3904
3904
3904
3904
3904
3904
3904
3904
3904
3904
3904
3904
3904
3904
3904
3904
3904
3904
3904
3904
3904
3904
3904
3904
3904
3904
3904
3904
3904
3904
3904
3904
3904
3904
3904
3904
3904
3904
3904
3904
3904
3904
3904
3904
3904
3904
3904
3904
3904
3904
3904
3904
3904
3904
3904
3904
3904
3904
3904
3904
3904
3904
3904
3904
3904
3904
3904
3928
3928
3928
3928
3928
3928
3928
3928
3928
3928
3928
3928
3928
3928
3928
3928
3928
3928
3928
3928
3928
3928
3928
3928
3928
3928
3928
3928
3928
3928
3928
3928
3928
3928
3928
3928
3928
3928
3928
3928
3928
3928
3928
3928
3928
3928
3928
3954
3954
3954
3954
3954
3954
3954
3954
3954
3954
3954
3954
3954
3954
3954
3954
3954
3954
3954
3954
3954
3954
3954
3954
3954
3954
3954
3954
3954
3954
3954
3954
3954
3954
3954
3954
3954
3954
3954
3954
3954
3954
3954
3954
3954
3954
3954
3954
3954
3954
3954
3954
3954
3954
3954
3954
3954
3954
3954
3954
3954
3954
3954
3954
3954
3954
3954
3954
3954
3954
3954
3954
3954
3954
3954
3954
3954
3954
3954
3954
3954
3954
3954
3954
3954
3954
3954
3954
3954
3954
3954
3954
3954
3954
3954
3954
3954
3954
3954
3954
3954
3954
3954
3954
3954
3954
3954
3954
3954
3954
3954
3954
3954
3954
3954
3954
3954
3954
3954
3954
3954
3954
3954
3954
3954
3954
3954
3954
3954
3954
3954
3954
3954
3954
3954
3954
3954
3954
3954
3954
3954
3954
3954
3954
3954
3954
3954
3954
3954
3954
3954
3954
3954
3954
3954
3954
3954
3954
3954
3954
3954
3954
3954
3954
3954
3954
3954
3954
3954
3954
3954
3954
3954
3954
3954
3954
3954
3954
3954
3954
3954
3954
3954
3954
3954
3954
3954
3954
3954
3954
3954
3954
3954
3954
3954
3954
3954
3954
3954
3954
3954
3954
3954
3954
3954
3954
3954
3954
3954
3954
3954
3954
3954
3954
3954
3954
3954
3954
3954
3954
3954
3954
3954
3954
3954
3954
3954
3954
3954
3954
3954
3954
3954
3954
3954
3954
3954
3954
3954
3954
3954
3954
3954
3954
3954
3954
3954
3954
3954
3954
3954
3954
3954
3954
3954
3954
3954
3954
3954
3954
3954
3954
3954
3954
3954
3954
3954
3954
3954
3954
3954
3954
3954
3954
3954
3954
3954
3954
3954
3954
3954
3954
3954
3954
3954
3954
3954
3954
3954
3954
3954
3954
3954
3954
3954
3954
3954
3954
3954
3954
3954
3954
3954
3954
3954
3954
3954
3954
3954
3954
3954
3954
3954
3954
3954
3954
3954
3954
3954
3954
3954
3954
3954
3954
3954
3954
3954
3954
3954
3954
3954
3954
3954
3954
3954
3954
3954
3954
3954
3954
3954
3954
3954
3954
3954
3954
3954
3954
3954
3954
3954
3954
3954
3954
3954
3954
3954
3954
3954
3954
3954
3954
3954
3954
3954
3954
3954
3954
3954
3954
3954
3954
3954
3954
3954
3954
3954
3954
3954
3954
3954
3954
3954
3954
3954
3954
3954
3954
3954
3954
3954
3954
3954
3954
3954
3954
3954
3954
3954
3954
3954
3954
3954
3954
3954
3954
3954
3954
3954
3954
3954
3954
3954
3954
3954
3954
3954
3954
3954
3954
3954
3954
3954
3954
3954
3954
3954
3954
3954
3954
3954
3954
3954
3954
3954
3954
3954
3954
3954
3954
3954
3954
3954
3954
3954
3954
3954
3954
3954
3954
3954
3954
3954
3954
3954
3954
3954
3954
3954
3954
3954
3954
3954
3954
3954
3954
3954
3954
3954
3954
3954
3954
3954
3954
3954
3954
3954
3954
3954
3954
3954
3954
3954
3954
3954
3954
3954
3954
3954
3954
3954
3954
3954
3954
3954
3954
3954
3954
3954
3954
3954
3954
3954
3954
3954
3954
3954
3954
3954
3954
3954
3969
3969
3969
3969
3969
3969
3969
3969
3969
3969
3969
3969
3969
3969
3969
3969
3969
3969
3969
3969
3969
3969
3969
3969
3969
3969
3969
3969
3969
3969
3969
3969
3969
3969
3969
3969
3969
3969
3969
3969
3969
3988
3988
3988
3988
3988
3988
3988
3988
3988
3988
3988
3988
3988
3988
3988
3988
3988
3988
3988
3988
3988
3988
3988
3988
3988
3988
3988
3988
3988
3988
3988
3988
3988
3988
3988
3988
3988
3988
3988
3988
3988
3988
3988
3988
3988
3988
3988
3988
3988
3988
3988
3988
3988
3988
3988
3988
3988
3988
3988
3988
3988
3988
3988
3988
3988
3988
3988
3988
3988
3988
3988
3988
3988
3988
3988
3988
3988
3988
3988
3988
3988
3988
3988
3988
3988
3988
3988
3988
3988
3988
3988
3988
3988
3988
3988
3988
3988
3988
3988
3988
3988
3988
3988
3988
3988
3988
3988
3988
3988
3988
3988
3988
3988
3988
3988
3988
3988
3988
3988
3988
3988
3988
3988
3988
3988
3988
3988
3988
3988
3988
3988
3988
3988
3988
3988
3988
3988
3988
3988
3988
3988
